100 68903

 21 88
64 129
165 907
27 887
311 341
285 4
660 327
281 410
838 879
831 306
164 908
898 607
918 721
224 225
784 971
146 348
965 992
950 321
868 559
30 988
45 181
787 618
471 711
34 386
653 618
427 792
830 772
886 108
221 531
868 410
534 971
692 296
948 818
367 171
932 331
841 493
743 195
915 12
550 195
582 490
116 795
239 881
335 182
441 962
148 817
9 656
288 898
388 316
50 694
850 30
517 596
916 678
855 796
638 793
587 96
677 381
278 778
954 444
836 298
989 808
300 737
802 845
589 361
810 374
649 554
618 303
607 421
135 246
580 720
147 237
490 534
478 185
159 468
384 754
163 363
441 283
853 553
189 336
415 162
339 160
607 474
181 601
288 322
834 12
187 424
884 73
138 588
130 858
194 201
316 522
984 864
785 505
864 738
144 688
16 788
302 39
423 60
245 578
927 321
107 435
